clingo version 5.3.0
Reading from ...benchmarks/assign/testInst/x100_y37.lp ...
/home/luiwerner/Asprilo/benchmark-tool/benchmarks/assign/control-m/control.ilp:3:7-18: info: atom does not occur in any rule head:
  move(#X0,#P1,#X2)

/home/luiwerner/Asprilo/benchmark-tool/benchmarks/assign/m/./output-M.ilp:6:59-77: info: atom does not occur in any rule head:
  move(robot(R),D,#Inc0)

Solving...
/home/luiwerner/Asprilo/benchmark-tool/benchmarks/assign/control-m/control.ilp:5:4-20: info: atom does not occur in any rule head:
  processed(A,R,#Inc0)

Solving...
Solving...
Solving...
Solving...
Solving...
Solving...
Solving...
Solving...
Solving...
Solving...
Solving...
Solving...
Solving...
Solving...
Solving...
Solving...
Solving...
Solving...
../../../../../../../../programs/clingo-ilpAssignModels: line 3: 47137 Killed                  clingo --mode=clingo ~/Asprilo/benchmark-tool/benchmarks/assign/testInst/x100_y37.lp ~/Asprilo/benchmark-tool/benchmarks/assign/m/encoding.ilp ~/Asprilo/benchmark-tool/benchmarks/assign/control-m/control.ilp $@
